%%%mzn-stat: initTime=0.005597389
%%%mzn-stat: objective=452
%%%mzn-stat: nodes=3116
%%%mzn-stat: restarts=0
%%%mzn-stat: peakDepth=172
%%%mzn-stat: solveTime=0.131340634
%%%mzn-stat: variables=531
%%%mzn-stat: propagators=375
%%%mzn-stat: failures=1071
%%%mzn-stat: propagations=148754
%%%mzn-stat: nogoods=1071
%%%mzn-stat: AverageConflictSize=15.450046685340803
%%%mzn-stat: NumUnitNogoodsLearned=451
%%%mzn-stat: AverageLearnedNogoodLength=13.04108309990663
%%%mzn-stat: AverageBacktrackAmount=0
%%%mzn-stat: AverageLbd=3.4089635854341735
%%%mzn-stat-end
maxleg = 452;
succ = array1d(1..20,[13, 1, 5, 8, 11, 2, 4, 18, 10, 16, 7, 17, 19, 3, 6, 20, 15, 12, 9, 14]);
% time elapsed: 1.59 s
----------
==========
% time elapsed: 1.59 s
%%%mzn-stat: initTime=0.005597389
%%%mzn-stat: objective=452
%%%mzn-stat: nodes=3116
%%%mzn-stat: restarts=0
%%%mzn-stat: peakDepth=172
%%%mzn-stat: solveTime=0.131344279
%%%mzn-stat: variables=531
%%%mzn-stat: propagators=375
%%%mzn-stat: failures=1071
%%%mzn-stat: propagations=148754
%%%mzn-stat: nogoods=1071
%%%mzn-stat: AverageConflictSize=15.450046685340803
%%%mzn-stat: NumUnitNogoodsLearned=451
%%%mzn-stat: AverageLearnedNogoodLength=13.04108309990663
%%%mzn-stat: AverageBacktrackAmount=0
%%%mzn-stat: AverageLbd=3.4089635854341735
%%%mzn-stat-end
